\Problem name: MIN custos totais

Minimize
OBJROW: 166.39000 x(tn1,0) + 167.39000 x(tn1,1) + 166.80000 x(tn1,2) + 160 x(tn1,3) + 160.21000 x(tn1,4) + 161 x(tn1,5) + 162.31000 x(tn1,6) + 163.19000 x(tn1,7) + 165.22000 x(tn1,8) + 166.27000 x(tn1,9)
 + 166.39000 x(tn1,10) + 160 x(tn2,0) + 160 x(tn2,1) + 160.20000 x(tn2,2) + 160 x(tn2,3) + 160.21000 x(tn2,4) + 161 x(tn2,5) + 160.51000 x(tn2,6) + 160 x(tn2,7) + 160.11000 x(tn2,8)
 + 160 x(tn2,9) + 160 x(tn2,10) + 160 x(tn3,0) + 160 x(tn3,1) + 160.20000 x(tn3,2) + 160 x(tn3,3) + 160.21000 x(tn3,4) + 160 x(tn3,5) + 160.51000 x(tn3,6) + 160 x(tn3,7)
 + 160.11000 x(tn3,8) + 160 x(tn3,9) + 160 x(tn3,10) + 117 x(tn4,0) + 116.72000 x(tn4,1) + 116.80000 x(tn4,2) + 117 x(tn4,3) + 116.88000 x(tn4,4) + 116.91000 x(tn4,5) + 116.72000 x(tn4,6)
 + 116.80000 x(tn4,7) + 117 x(tn4,8) + 116.71000 x(tn4,9) + 117 x(tn4,10) + 218.10000 x(tn5,0) + 225 x(tn5,1) + 225 x(tn5,2) + 225 x(tn5,3) + 219.05000 x(tn5,4) + 218.86000 x(tn5,5)
 + 217.56000 x(tn5,6) + 217.42000 x(tn5,7) + 218.06000 x(tn5,8) + 218.05000 x(tn5,9) + 218.10000 x(tn5,10) + 218.16000 x(tn6,0) + 225 x(tn6,1) + 225 x(tn6,2) + 225 x(tn6,3) + 219.05000 x(tn6,4)
 + 219.05000 x(tn6,5) + 217.56000 x(tn6,6) + 218.31000 x(tn6,7) + 217.94000 x(tn6,8) + 218.20000 x(tn6,9) + 218.16000 x(tn6,10) + 218.16000 x(tn7,0) + 225.05000 x(tn7,1) + 225.01000 x(tn7,2) + 225 x(tn7,3)
 + 219.05000 x(tn7,4) + 219.05000 x(tn7,5) + 217.56000 x(tn7,6) + 218.31000 x(tn7,7) + 217.94000 x(tn7,8) + 218.20000 x(tn7,9) + 218.16000 x(tn7,10) + 262.23000 x(tn8,0) + 262.11000 x(tn8,1) + 262.10000 x(tn8,2)
 + 262.19000 x(tn8,3) + 262.19000 x(tn8,4) + 262.30000 x(tn8,5) + 261.92000 x(tn8,6) + 261.95000 x(tn8,7) + 262.21000 x(tn8,8) + 262.19000 x(tn8,9) + 262.23000 x(tn8,10) + 59.90000 x(tn9,0) + 53.48000 x(tn9,1)
 + 53.47000 x(tn9,2) + 53.47000 x(tn9,3) + 54.21000 x(tn9,4) + 55.10000 x(tn9,5) + 57.52000 x(tn9,6) + 59.78000 x(tn9,7) + 59.92000 x(tn9,8) + 59.86000 x(tn9,9) + 59.90000 x(tn9,10) + 66 x(tn10,0)
 + 66.03000 x(tn10,1) + 66.02000 x(tn10,2) + 65.93000 x(tn10,3) + 65.83000 x(tn10,4) + 65.71000 x(tn10,5) + 65.71000 x(tn10,6) + 64.76000 x(tn10,7) + 65.39000 x(tn10,8) + 65.70000 x(tn10,9) + 66 x(tn10,10)
 + 294.63000 x(tn11,0) + 260.01000 x(tn11,1) + 264.39000 x(tn11,2) + 270.54000 x(tn11,3) + 281.60000 x(tn11,4) + 294.43000 x(tn11,5) + 295 x(tn11,6) + 294.51000 x(tn11,7) + 294.65000 x(tn11,8) + 294.72000 x(tn11,9)
 + 294.63000 x(tn11,10) + 168 x(tn12,0) + 147.62000 x(tn12,1) + 147.62000 x(tn12,2) + 147.62000 x(tn12,3) + 147.62000 x(tn12,4) + 147.62000 x(tn12,5) + 167.19000 x(tn12,6) + 167.21000 x(tn12,7) + 167.25000 x(tn12,8)
 + 168.10000 x(tn12,9) + 168 x(tn12,10) + 86.14000 x(tn13,0) + 86.20000 x(tn13,1) + 86 x(tn13,2) + 86.01000 x(tn13,3) + 86 x(tn13,4) + 86 x(tn13,5) + 86 x(tn13,6) + 86.05000 x(tn13,7)
 + 86.04000 x(tn13,8) + 86.19000 x(tn13,9) + 86.14000 x(tn13,10) + 55.71000 x(tn14,0) + 51.65000 x(tn14,1) + 52.05000 x(tn14,2) + 52.35000 x(tn14,3) + 52.67000 x(tn14,4) + 53 x(tn14,5) + 55.29000 x(tn14,6)
 + 55.15000 x(tn14,7) + 55.70000 x(tn14,8) + 56.01000 x(tn14,9) + 55.71000 x(tn14,10)
Subject To
constr(0):  y(tn1,0) = 3
constr(1):  y(tn2,0) = 1
constr(2):  y(tn3,0) = 4
constr(3):  y(tn4,0) = 16
constr(4):  y(tn5,0) = 3
constr(5):  y(tn6,0) = 3
constr(6):  y(tn7,0) = 3
constr(7):  y(tn8,0) = 2
constr(8):  y(tn9,0) = 9
constr(9):  y(tn10,0) = 65
constr(10):  y(tn11,0) = 13
constr(11):  y(tn12,0) = 13
constr(12):  y(tn13,0) = 70
constr(13):  y(tn14,0) = 15
constr(14):  x(tn1,1) + y(tn1,0) - y(tn1,1) = 3
constr(15):  x(tn1,2) + y(tn1,1) - y(tn1,2) = -0
constr(16):  x(tn1,3) + y(tn1,2) - y(tn1,3) = -0
constr(17):  x(tn1,4) + y(tn1,3) - y(tn1,4) = -0
constr(18):  x(tn1,5) + y(tn1,4) - y(tn1,5) = -0
constr(19):  x(tn1,6) + y(tn1,5) - y(tn1,6) = -0
constr(20):  x(tn1,7) + y(tn1,6) - y(tn1,7) = -0
constr(21):  x(tn1,8) + y(tn1,7) - y(tn1,8) = 2
constr(22):  x(tn1,9) + y(tn1,8) - y(tn1,9) = -0
constr(23):  x(tn1,10) + y(tn1,9) - y(tn1,10) = -0
constr(24):  x(tn2,1) + y(tn2,0) - y(tn2,1) = 3
constr(25):  x(tn2,2) + y(tn2,1) - y(tn2,2) = 2
constr(26):  x(tn2,3) + y(tn2,2) - y(tn2,3) = 1
constr(27):  x(tn2,4) + y(tn2,3) - y(tn2,4) = 1
constr(28):  x(tn2,5) + y(tn2,4) - y(tn2,5) = -0
constr(29):  x(tn2,6) + y(tn2,5) - y(tn2,6) = -0
constr(30):  x(tn2,7) + y(tn2,6) - y(tn2,7) = 3
constr(31):  x(tn2,8) + y(tn2,7) - y(tn2,8) = 3
constr(32):  x(tn2,9) + y(tn2,8) - y(tn2,9) = -0
constr(33):  x(tn2,10) + y(tn2,9) - y(tn2,10) = -0
constr(34):  x(tn3,1) + y(tn3,0) - y(tn3,1) = 3
constr(35):  x(tn3,2) + y(tn3,1) - y(tn3,2) = -0
constr(36):  x(tn3,3) + y(tn3,2) - y(tn3,3) = 1
constr(37):  x(tn3,4) + y(tn3,3) - y(tn3,4) = -0
constr(38):  x(tn3,5) + y(tn3,4) - y(tn3,5) = -0
constr(39):  x(tn3,6) + y(tn3,5) - y(tn3,6) = -0
constr(40):  x(tn3,7) + y(tn3,6) - y(tn3,7) = -0
constr(41):  x(tn3,8) + y(tn3,7) - y(tn3,8) = 2
constr(42):  x(tn3,9) + y(tn3,8) - y(tn3,9) = 1
constr(43):  x(tn3,10) + y(tn3,9) - y(tn3,10) = -0
constr(44):  x(tn4,1) + y(tn4,0) - y(tn4,1) = 4
constr(45):  x(tn4,2) + y(tn4,1) - y(tn4,2) = 3
constr(46):  x(tn4,3) + y(tn4,2) - y(tn4,3) = -0
constr(47):  x(tn4,4) + y(tn4,3) - y(tn4,4) = -0
constr(48):  x(tn4,5) + y(tn4,4) - y(tn4,5) = 1
constr(49):  x(tn4,6) + y(tn4,5) - y(tn4,6) = -0
constr(50):  x(tn4,7) + y(tn4,6) - y(tn4,7) = 2
constr(51):  x(tn4,8) + y(tn4,7) - y(tn4,8) = 4
constr(52):  x(tn4,9) + y(tn4,8) - y(tn4,9) = -0
constr(53):  x(tn4,10) + y(tn4,9) - y(tn4,10) = -0
constr(54):  x(tn5,1) + y(tn5,0) - y(tn5,1) = -0
constr(55):  x(tn5,2) + y(tn5,1) - y(tn5,2) = -0
constr(56):  x(tn5,3) + y(tn5,2) - y(tn5,3) = 1
constr(57):  x(tn5,4) + y(tn5,3) - y(tn5,4) = 1
constr(58):  x(tn5,5) + y(tn5,4) - y(tn5,5) = 1
constr(59):  x(tn5,6) + y(tn5,5) - y(tn5,6) = -0
constr(60):  x(tn5,7) + y(tn5,6) - y(tn5,7) = 1
constr(61):  x(tn5,8) + y(tn5,7) - y(tn5,8) = -0
constr(62):  x(tn5,9) + y(tn5,8) - y(tn5,9) = -0
constr(63):  x(tn5,10) + y(tn5,9) - y(tn5,10) = 1
constr(64):  x(tn6,1) + y(tn6,0) - y(tn6,1) = -0
constr(65):  x(tn6,2) + y(tn6,1) - y(tn6,2) = -0
constr(66):  x(tn6,3) + y(tn6,2) - y(tn6,3) = 2
constr(67):  x(tn6,4) + y(tn6,3) - y(tn6,4) = 2
constr(68):  x(tn6,5) + y(tn6,4) - y(tn6,5) = 1
constr(69):  x(tn6,6) + y(tn6,5) - y(tn6,6) = 1
constr(70):  x(tn6,7) + y(tn6,6) - y(tn6,7) = 1
constr(71):  x(tn6,8) + y(tn6,7) - y(tn6,8) = -0
constr(72):  x(tn6,9) + y(tn6,8) - y(tn6,9) = -0
constr(73):  x(tn6,10) + y(tn6,9) - y(tn6,10) = 1
constr(74):  x(tn7,1) + y(tn7,0) - y(tn7,1) = -0
constr(75):  x(tn7,2) + y(tn7,1) - y(tn7,2) = -0
constr(76):  x(tn7,3) + y(tn7,2) - y(tn7,3) = 2
constr(77):  x(tn7,4) + y(tn7,3) - y(tn7,4) = 1
constr(78):  x(tn7,5) + y(tn7,4) - y(tn7,5) = -0
constr(79):  x(tn7,6) + y(tn7,5) - y(tn7,6) = 1
constr(80):  x(tn7,7) + y(tn7,6) - y(tn7,7) = 1
constr(81):  x(tn7,8) + y(tn7,7) - y(tn7,8) = -0
constr(82):  x(tn7,9) + y(tn7,8) - y(tn7,9) = -0
constr(83):  x(tn7,10) + y(tn7,9) - y(tn7,10) = 1
constr(84):  x(tn8,1) + y(tn8,0) - y(tn8,1) = -0
constr(85):  x(tn8,2) + y(tn8,1) - y(tn8,2) = -0
constr(86):  x(tn8,3) + y(tn8,2) - y(tn8,3) = -0
constr(87):  x(tn8,4) + y(tn8,3) - y(tn8,4) = 1
constr(88):  x(tn8,5) + y(tn8,4) - y(tn8,5) = -0
constr(89):  x(tn8,6) + y(tn8,5) - y(tn8,6) = -0
constr(90):  x(tn8,7) + y(tn8,6) - y(tn8,7) = -0
constr(91):  x(tn8,8) + y(tn8,7) - y(tn8,8) = -0
constr(92):  x(tn8,9) + y(tn8,8) - y(tn8,9) = -0
constr(93):  x(tn8,10) + y(tn8,9) - y(tn8,10) = -0
constr(94):  x(tn9,1) + y(tn9,0) - y(tn9,1) = 8
constr(95):  x(tn9,2) + y(tn9,1) - y(tn9,2) = 4
constr(96):  x(tn9,3) + y(tn9,2) - y(tn9,3) = -0
constr(97):  x(tn9,4) + y(tn9,3) - y(tn9,4) = 3
constr(98):  x(tn9,5) + y(tn9,4) - y(tn9,5) = 54
constr(99):  x(tn9,6) + y(tn9,5) - y(tn9,6) = 16
constr(100):  x(tn9,7) + y(tn9,6) - y(tn9,7) = 1
constr(101):  x(tn9,8) + y(tn9,7) - y(tn9,8) = 5
constr(102):  x(tn9,9) + y(tn9,8) - y(tn9,9) = 5
constr(103):  x(tn9,10) + y(tn9,9) - y(tn9,10) = 1
constr(104):  x(tn10,1) + y(tn10,0) - y(tn10,1) = 27
constr(105):  x(tn10,2) + y(tn10,1) - y(tn10,2) = 40
constr(106):  x(tn10,3) + y(tn10,2) - y(tn10,3) = 71
constr(107):  x(tn10,4) + y(tn10,3) - y(tn10,4) = 57
constr(108):  x(tn10,5) + y(tn10,4) - y(tn10,5) = 72
constr(109):  x(tn10,6) + y(tn10,5) - y(tn10,6) = 16
constr(110):  x(tn10,7) + y(tn10,6) - y(tn10,7) = 30
constr(111):  x(tn10,8) + y(tn10,7) - y(tn10,8) = 153
constr(112):  x(tn10,9) + y(tn10,8) - y(tn10,9) = 40
constr(113):  x(tn10,10) + y(tn10,9) - y(tn10,10) = 7
constr(114):  x(tn11,1) + y(tn11,0) - y(tn11,1) = 2
constr(115):  x(tn11,2) + y(tn11,1) - y(tn11,2) = 1
constr(116):  x(tn11,3) + y(tn11,2) - y(tn11,3) = 6
constr(117):  x(tn11,4) + y(tn11,3) - y(tn11,4) = 2
constr(118):  x(tn11,5) + y(tn11,4) - y(tn11,5) = 7
constr(119):  x(tn11,6) + y(tn11,5) - y(tn11,6) = 5
constr(120):  x(tn11,7) + y(tn11,6) - y(tn11,7) = 6
constr(121):  x(tn11,8) + y(tn11,7) - y(tn11,8) = 11
constr(122):  x(tn11,9) + y(tn11,8) - y(tn11,9) = 4
constr(123):  x(tn11,10) + y(tn11,9) - y(tn11,10) = 5
constr(124):  x(tn12,1) + y(tn12,0) - y(tn12,1) = 8
constr(125):  x(tn12,2) + y(tn12,1) - y(tn12,2) = 10
constr(126):  x(tn12,3) + y(tn12,2) - y(tn12,3) = 2
constr(127):  x(tn12,4) + y(tn12,3) - y(tn12,4) = 3
constr(128):  x(tn12,5) + y(tn12,4) - y(tn12,5) = 14
constr(129):  x(tn12,6) + y(tn12,5) - y(tn12,6) = 7
constr(130):  x(tn12,7) + y(tn12,6) - y(tn12,7) = 5
constr(131):  x(tn12,8) + y(tn12,7) - y(tn12,8) = 7
constr(132):  x(tn12,9) + y(tn12,8) - y(tn12,9) = 12
constr(133):  x(tn12,10) + y(tn12,9) - y(tn12,10) = 5
constr(134):  x(tn13,1) + y(tn13,0) - y(tn13,1) = 62
constr(135):  x(tn13,2) + y(tn13,1) - y(tn13,2) = 64
constr(136):  x(tn13,3) + y(tn13,2) - y(tn13,3) = 136
constr(137):  x(tn13,4) + y(tn13,3) - y(tn13,4) = 108
constr(138):  x(tn13,5) + y(tn13,4) - y(tn13,5) = 146
constr(139):  x(tn13,6) + y(tn13,5) - y(tn13,6) = 91
constr(140):  x(tn13,7) + y(tn13,6) - y(tn13,7) = 114
constr(141):  x(tn13,8) + y(tn13,7) - y(tn13,8) = 106
constr(142):  x(tn13,9) + y(tn13,8) - y(tn13,9) = 65
constr(143):  x(tn13,10) + y(tn13,9) - y(tn13,10) = 29
constr(144):  x(tn14,1) + y(tn14,0) - y(tn14,1) = -0
constr(145):  x(tn14,2) + y(tn14,1) - y(tn14,2) = 6
constr(146):  x(tn14,3) + y(tn14,2) - y(tn14,3) = 2
constr(147):  x(tn14,4) + y(tn14,3) - y(tn14,4) = 3
constr(148):  x(tn14,5) + y(tn14,4) - y(tn14,5) = 7
constr(149):  x(tn14,6) + y(tn14,5) - y(tn14,6) = 13
constr(150):  x(tn14,7) + y(tn14,6) - y(tn14,7) = 6
constr(151):  x(tn14,8) + y(tn14,7) - y(tn14,8) = 4
constr(152):  x(tn14,9) + y(tn14,8) - y(tn14,9) = 2
constr(153):  x(tn14,10) + y(tn14,9) - y(tn14,10) = 1
constr(154):  y(tn1,1) >= 1
constr(155):  y(tn1,2) >= 1
constr(156):  y(tn1,3) >= 1
constr(157):  y(tn1,4) >= 1
constr(158):  y(tn1,5) >= 1
constr(159):  y(tn1,6) >= 1
constr(160):  y(tn1,7) >= 1
constr(161):  y(tn1,8) >= 1
constr(162):  y(tn1,9) >= 1
constr(163):  y(tn1,10) >= 1
constr(164):  y(tn2,1) >= 1
constr(165):  y(tn2,2) >= 1
constr(166):  y(tn2,3) >= 1
constr(167):  y(tn2,4) >= 1
constr(168):  y(tn2,5) >= 1
constr(169):  y(tn2,6) >= 1
constr(170):  y(tn2,7) >= 1
constr(171):  y(tn2,8) >= 1
constr(172):  y(tn2,9) >= 1
constr(173):  y(tn2,10) >= 1
constr(174):  y(tn3,1) >= 1
constr(175):  y(tn3,2) >= 1
constr(176):  y(tn3,3) >= 1
constr(177):  y(tn3,4) >= 1
constr(178):  y(tn3,5) >= 1
constr(179):  y(tn3,6) >= 1
constr(180):  y(tn3,7) >= 1
constr(181):  y(tn3,8) >= 1
constr(182):  y(tn3,9) >= 1
constr(183):  y(tn3,10) >= 1
constr(184):  y(tn4,1) >= 1
constr(185):  y(tn4,2) >= 1
constr(186):  y(tn4,3) >= 1
constr(187):  y(tn4,4) >= 1
constr(188):  y(tn4,5) >= 1
constr(189):  y(tn4,6) >= 1
constr(190):  y(tn4,7) >= 1
constr(191):  y(tn4,8) >= 1
constr(192):  y(tn4,9) >= 1
constr(193):  y(tn4,10) >= 1
constr(194):  y(tn5,1) >= 1
constr(195):  y(tn5,2) >= 1
constr(196):  y(tn5,3) >= 1
constr(197):  y(tn5,4) >= 1
constr(198):  y(tn5,5) >= 1
constr(199):  y(tn5,6) >= 1
constr(200):  y(tn5,7) >= 1
constr(201):  y(tn5,8) >= 1
constr(202):  y(tn5,9) >= 1
constr(203):  y(tn5,10) >= 1
constr(204):  y(tn6,1) >= 1
constr(205):  y(tn6,2) >= 1
constr(206):  y(tn6,3) >= 1
constr(207):  y(tn6,4) >= 1
constr(208):  y(tn6,5) >= 1
constr(209):  y(tn6,6) >= 1
constr(210):  y(tn6,7) >= 1
constr(211):  y(tn6,8) >= 1
constr(212):  y(tn6,9) >= 1
constr(213):  y(tn6,10) >= 1
constr(214):  y(tn7,1) >= 1
constr(215):  y(tn7,2) >= 1
constr(216):  y(tn7,3) >= 1
constr(217):  y(tn7,4) >= 1
constr(218):  y(tn7,5) >= 1
constr(219):  y(tn7,6) >= 1
constr(220):  y(tn7,7) >= 1
constr(221):  y(tn7,8) >= 1
constr(222):  y(tn7,9) >= 1
constr(223):  y(tn7,10) >= 1
constr(224):  y(tn8,1) >= 1
constr(225):  y(tn8,2) >= 1
constr(226):  y(tn8,3) >= 1
constr(227):  y(tn8,4) >= 1
constr(228):  y(tn8,5) >= 1
constr(229):  y(tn8,6) >= 1
constr(230):  y(tn8,7) >= 1
constr(231):  y(tn8,8) >= 1
constr(232):  y(tn8,9) >= 1
constr(233):  y(tn8,10) >= 1
constr(234):  y(tn9,1) >= 3
constr(235):  y(tn9,2) >= 3
constr(236):  y(tn9,3) >= 3
constr(237):  y(tn9,4) >= 3
constr(238):  y(tn9,5) >= 3
constr(239):  y(tn9,6) >= 3
constr(240):  y(tn9,7) >= 3
constr(241):  y(tn9,8) >= 3
constr(242):  y(tn9,9) >= 3
constr(243):  y(tn9,10) >= 3
constr(244):  y(tn10,1) >= 7
constr(245):  y(tn10,2) >= 7
constr(246):  y(tn10,3) >= 7
constr(247):  y(tn10,4) >= 7
constr(248):  y(tn10,5) >= 7
constr(249):  y(tn10,6) >= 7
constr(250):  y(tn10,7) >= 7
constr(251):  y(tn10,8) >= 7
constr(252):  y(tn10,9) >= 7
constr(253):  y(tn10,10) >= 7
constr(254):  y(tn11,1) >= 2
constr(255):  y(tn11,2) >= 2
constr(256):  y(tn11,3) >= 2
constr(257):  y(tn11,4) >= 2
constr(258):  y(tn11,5) >= 2
constr(259):  y(tn11,6) >= 2
constr(260):  y(tn11,7) >= 2
constr(261):  y(tn11,8) >= 2
constr(262):  y(tn11,9) >= 2
constr(263):  y(tn11,10) >= 2
constr(264):  y(tn12,1) >= 2
constr(265):  y(tn12,2) >= 2
constr(266):  y(tn12,3) >= 2
constr(267):  y(tn12,4) >= 2
constr(268):  y(tn12,5) >= 2
constr(269):  y(tn12,6) >= 2
constr(270):  y(tn12,7) >= 2
constr(271):  y(tn12,8) >= 2
constr(272):  y(tn12,9) >= 2
constr(273):  y(tn12,10) >= 2
constr(274):  y(tn13,1) >= 7
constr(275):  y(tn13,2) >= 7
constr(276):  y(tn13,3) >= 7
constr(277):  y(tn13,4) >= 7
constr(278):  y(tn13,5) >= 7
constr(279):  y(tn13,6) >= 7
constr(280):  y(tn13,7) >= 7
constr(281):  y(tn13,8) >= 7
constr(282):  y(tn13,9) >= 7
constr(283):  y(tn13,10) >= 7
constr(284):  y(tn14,1) >= 3
constr(285):  y(tn14,2) >= 3
constr(286):  y(tn14,3) >= 3
constr(287):  y(tn14,4) >= 3
constr(288):  y(tn14,5) >= 3
constr(289):  y(tn14,6) >= 3
constr(290):  y(tn14,7) >= 3
constr(291):  y(tn14,8) >= 3
constr(292):  y(tn14,9) >= 3
constr(293):  y(tn14,10) >= 3
constr(294):  0.00360 y(tn1,1) + 0.00360 y(tn1,2) + 0.00360 y(tn1,3) + 0.00360 y(tn1,4) + 0.00360 y(tn1,5) + 0.00360 y(tn1,6) + 0.00360 y(tn1,7) + 0.00360 y(tn1,8) + 0.00360 y(tn1,9) + 0.00360 y(tn1,10)
 + 0.00360 y(tn2,1) + 0.00360 y(tn2,2) + 0.00360 y(tn2,3) + 0.00360 y(tn2,4) + 0.00360 y(tn2,5) + 0.00360 y(tn2,6) + 0.00360 y(tn2,7) + 0.00360 y(tn2,8) + 0.00360 y(tn2,9) + 0.00360 y(tn2,10)
 + 0.00360 y(tn3,1) + 0.00360 y(tn3,2) + 0.00360 y(tn3,3) + 0.00360 y(tn3,4) + 0.00360 y(tn3,5) + 0.00360 y(tn3,6) + 0.00360 y(tn3,7) + 0.00360 y(tn3,8) + 0.00360 y(tn3,9) + 0.00360 y(tn3,10)
 + 0.00360 y(tn4,1) + 0.00360 y(tn4,2) + 0.00360 y(tn4,3) + 0.00360 y(tn4,4) + 0.00360 y(tn4,5) + 0.00360 y(tn4,6) + 0.00360 y(tn4,7) + 0.00360 y(tn4,8) + 0.00360 y(tn4,9) + 0.00360 y(tn4,10)
 + 0.00547 y(tn5,1) + 0.00547 y(tn5,2) + 0.00547 y(tn5,3) + 0.00547 y(tn5,4) + 0.00547 y(tn5,5) + 0.00547 y(tn5,6) + 0.00547 y(tn5,7) + 0.00547 y(tn5,8) + 0.00547 y(tn5,9) + 0.00547 y(tn5,10)
 + 0.00547 y(tn6,1) + 0.00547 y(tn6,2) + 0.00547 y(tn6,3) + 0.00547 y(tn6,4) + 0.00547 y(tn6,5) + 0.00547 y(tn6,6) + 0.00547 y(tn6,7) + 0.00547 y(tn6,8) + 0.00547 y(tn6,9) + 0.00547 y(tn6,10)
 + 0.00547 y(tn7,1) + 0.00547 y(tn7,2) + 0.00547 y(tn7,3) + 0.00547 y(tn7,4) + 0.00547 y(tn7,5) + 0.00547 y(tn7,6) + 0.00547 y(tn7,7) + 0.00547 y(tn7,8) + 0.00547 y(tn7,9) + 0.00547 y(tn7,10)
 + 0.00547 y(tn8,1) + 0.00547 y(tn8,2) + 0.00547 y(tn8,3) + 0.00547 y(tn8,4) + 0.00547 y(tn8,5) + 0.00547 y(tn8,6) + 0.00547 y(tn8,7) + 0.00547 y(tn8,8) + 0.00547 y(tn8,9) + 0.00547 y(tn8,10)
 + 0.00543 y(tn9,1) + 0.00543 y(tn9,2) + 0.00543 y(tn9,3) + 0.00543 y(tn9,4) + 0.00543 y(tn9,5) + 0.00543 y(tn9,6) + 0.00543 y(tn9,7) + 0.00543 y(tn9,8) + 0.00543 y(tn9,9) + 0.00543 y(tn9,10)
 + 0.00543 y(tn10,1) + 0.00543 y(tn10,2) + 0.00543 y(tn10,3) + 0.00543 y(tn10,4) + 0.00543 y(tn10,5) + 0.00543 y(tn10,6) + 0.00543 y(tn10,7) + 0.00543 y(tn10,8) + 0.00543 y(tn10,9) + 0.00543 y(tn10,10)
 + 0.01580 y(tn11,1) + 0.01580 y(tn11,2) + 0.01580 y(tn11,3) + 0.01580 y(tn11,4) + 0.01580 y(tn11,5) + 0.01580 y(tn11,6) + 0.01580 y(tn11,7) + 0.01580 y(tn11,8) + 0.01580 y(tn11,9) + 0.01580 y(tn11,10)
 + 0.01239 y(tn12,1) + 0.01239 y(tn12,2) + 0.01239 y(tn12,3) + 0.01239 y(tn12,4) + 0.01239 y(tn12,5) + 0.01239 y(tn12,6) + 0.01239 y(tn12,7) + 0.01239 y(tn12,8) + 0.01239 y(tn12,9) + 0.01239 y(tn12,10)
 + 0.01239 y(tn13,1) + 0.01239 y(tn13,2) + 0.01239 y(tn13,3) + 0.01239 y(tn13,4) + 0.01239 y(tn13,5) + 0.01239 y(tn13,6) + 0.01239 y(tn13,7) + 0.01239 y(tn13,8) + 0.01239 y(tn13,9) + 0.01239 y(tn13,10)
 + 0.00852 y(tn14,1) + 0.00852 y(tn14,2) + 0.00852 y(tn14,3) + 0.00852 y(tn14,4) + 0.00852 y(tn14,5) + 0.00852 y(tn14,6) + 0.00852 y(tn14,7) + 0.00852 y(tn14,8) + 0.00852 y(tn14,9) + 0.00852 y(tn14,10)
 <= 56.32000
constr(295):  x(tn1,1) >= -0
constr(296):  x(tn1,2) >= -0
constr(297):  x(tn1,3) >= -0
constr(298):  x(tn1,4) >= -0
constr(299):  x(tn1,5) >= -0
constr(300):  x(tn1,6) >= -0
constr(301):  x(tn1,7) >= -0
constr(302):  x(tn1,8) >= -0
constr(303):  x(tn1,9) >= -0
constr(304):  x(tn1,10) >= -0
constr(305):  x(tn2,1) >= -0
constr(306):  x(tn2,2) >= -0
constr(307):  x(tn2,3) >= -0
constr(308):  x(tn2,4) >= -0
constr(309):  x(tn2,5) >= -0
constr(310):  x(tn2,6) >= -0
constr(311):  x(tn2,7) >= -0
constr(312):  x(tn2,8) >= -0
constr(313):  x(tn2,9) >= -0
constr(314):  x(tn2,10) >= -0
constr(315):  x(tn3,1) >= -0
constr(316):  x(tn3,2) >= -0
constr(317):  x(tn3,3) >= -0
constr(318):  x(tn3,4) >= -0
constr(319):  x(tn3,5) >= -0
constr(320):  x(tn3,6) >= -0
constr(321):  x(tn3,7) >= -0
constr(322):  x(tn3,8) >= -0
constr(323):  x(tn3,9) >= -0
constr(324):  x(tn3,10) >= -0
constr(325):  x(tn4,1) >= -0
constr(326):  x(tn4,2) >= -0
constr(327):  x(tn4,3) >= -0
constr(328):  x(tn4,4) >= -0
constr(329):  x(tn4,5) >= -0
constr(330):  x(tn4,6) >= -0
constr(331):  x(tn4,7) >= -0
constr(332):  x(tn4,8) >= -0
constr(333):  x(tn4,9) >= -0
constr(334):  x(tn4,10) >= -0
constr(335):  x(tn5,1) >= -0
constr(336):  x(tn5,2) >= -0
constr(337):  x(tn5,3) >= -0
constr(338):  x(tn5,4) >= -0
constr(339):  x(tn5,5) >= -0
constr(340):  x(tn5,6) >= -0
constr(341):  x(tn5,7) >= -0
constr(342):  x(tn5,8) >= -0
constr(343):  x(tn5,9) >= -0
constr(344):  x(tn5,10) >= -0
constr(345):  x(tn6,1) >= -0
constr(346):  x(tn6,2) >= -0
constr(347):  x(tn6,3) >= -0
constr(348):  x(tn6,4) >= -0
constr(349):  x(tn6,5) >= -0
constr(350):  x(tn6,6) >= -0
constr(351):  x(tn6,7) >= -0
constr(352):  x(tn6,8) >= -0
constr(353):  x(tn6,9) >= -0
constr(354):  x(tn6,10) >= -0
constr(355):  x(tn7,1) >= -0
constr(356):  x(tn7,2) >= -0
constr(357):  x(tn7,3) >= -0
constr(358):  x(tn7,4) >= -0
constr(359):  x(tn7,5) >= -0
constr(360):  x(tn7,6) >= -0
constr(361):  x(tn7,7) >= -0
constr(362):  x(tn7,8) >= -0
constr(363):  x(tn7,9) >= -0
constr(364):  x(tn7,10) >= -0
constr(365):  x(tn8,1) >= -0
constr(366):  x(tn8,2) >= -0
constr(367):  x(tn8,3) >= -0
constr(368):  x(tn8,4) >= -0
constr(369):  x(tn8,5) >= -0
constr(370):  x(tn8,6) >= -0
constr(371):  x(tn8,7) >= -0
constr(372):  x(tn8,8) >= -0
constr(373):  x(tn8,9) >= -0
constr(374):  x(tn8,10) >= -0
constr(375):  x(tn9,1) >= -0
constr(376):  x(tn9,2) >= -0
constr(377):  x(tn9,3) >= -0
constr(378):  x(tn9,4) >= -0
constr(379):  x(tn9,5) >= -0
constr(380):  x(tn9,6) >= -0
constr(381):  x(tn9,7) >= -0
constr(382):  x(tn9,8) >= -0
constr(383):  x(tn9,9) >= -0
constr(384):  x(tn9,10) >= -0
constr(385):  x(tn10,1) >= -0
constr(386):  x(tn10,2) >= -0
constr(387):  x(tn10,3) >= -0
constr(388):  x(tn10,4) >= -0
constr(389):  x(tn10,5) >= -0
constr(390):  x(tn10,6) >= -0
constr(391):  x(tn10,7) >= -0
constr(392):  x(tn10,8) >= -0
constr(393):  x(tn10,9) >= -0
constr(394):  x(tn10,10) >= -0
constr(395):  x(tn11,1) >= -0
constr(396):  x(tn11,2) >= -0
constr(397):  x(tn11,3) >= -0
constr(398):  x(tn11,4) >= -0
constr(399):  x(tn11,5) >= -0
constr(400):  x(tn11,6) >= -0
constr(401):  x(tn11,7) >= -0
constr(402):  x(tn11,8) >= -0
constr(403):  x(tn11,9) >= -0
constr(404):  x(tn11,10) >= -0
constr(405):  x(tn12,1) >= -0
constr(406):  x(tn12,2) >= -0
constr(407):  x(tn12,3) >= -0
constr(408):  x(tn12,4) >= -0
constr(409):  x(tn12,5) >= -0
constr(410):  x(tn12,6) >= -0
constr(411):  x(tn12,7) >= -0
constr(412):  x(tn12,8) >= -0
constr(413):  x(tn12,9) >= -0
constr(414):  x(tn12,10) >= -0
constr(415):  x(tn13,1) >= -0
constr(416):  x(tn13,2) >= -0
constr(417):  x(tn13,3) >= -0
constr(418):  x(tn13,4) >= -0
constr(419):  x(tn13,5) >= -0
constr(420):  x(tn13,6) >= -0
constr(421):  x(tn13,7) >= -0
constr(422):  x(tn13,8) >= -0
constr(423):  x(tn13,9) >= -0
constr(424):  x(tn13,10) >= -0
constr(425):  x(tn14,1) >= -0
constr(426):  x(tn14,2) >= -0
constr(427):  x(tn14,3) >= -0
constr(428):  x(tn14,4) >= -0
constr(429):  x(tn14,5) >= -0
constr(430):  x(tn14,6) >= -0
constr(431):  x(tn14,7) >= -0
constr(432):  x(tn14,8) >= -0
constr(433):  x(tn14,9) >= -0
constr(434):  x(tn14,10) >= -0
constr(435):  x(tn1,1) = 1
constr(436):  x(tn1,2) = -0
constr(437):  x(tn1,3) = -0
constr(438):  x(tn1,4) = -0
constr(439):  x(tn1,5) = -0
constr(440):  x(tn1,6) = -0
constr(441):  x(tn1,7) = -0
constr(442):  x(tn1,8) = 2
constr(443):  x(tn1,9) = -0
constr(444):  x(tn1,10) = -0
constr(445):  x(tn2,1) = 3
constr(446):  x(tn2,2) = 2
constr(447):  x(tn2,3) = 1
constr(448):  x(tn2,4) = 1
constr(449):  x(tn2,5) = -0
constr(450):  x(tn2,6) = -0
constr(451):  x(tn2,7) = 3
constr(452):  x(tn2,8) = 3
constr(453):  x(tn2,9) = -0
constr(454):  x(tn2,10) = -0
constr(455):  x(tn3,1) = -0
constr(456):  x(tn3,2) = -0
constr(457):  x(tn3,3) = 1
constr(458):  x(tn3,4) = -0
constr(459):  x(tn3,5) = -0
constr(460):  x(tn3,6) = -0
constr(461):  x(tn3,7) = -0
constr(462):  x(tn3,8) = 2
constr(463):  x(tn3,9) = 1
constr(464):  x(tn3,10) = -0
constr(465):  x(tn4,1) = -0
constr(466):  x(tn4,2) = -0
constr(467):  x(tn4,3) = -0
constr(468):  x(tn4,4) = -0
constr(469):  x(tn4,5) = -0
constr(470):  x(tn4,6) = -0
constr(471):  x(tn4,7) = -0
constr(472):  x(tn4,8) = -0
constr(473):  x(tn4,9) = -0
constr(474):  x(tn4,10) = -0
constr(475):  x(tn5,1) = -0
constr(476):  x(tn5,2) = -0
constr(477):  x(tn5,3) = -0
constr(478):  x(tn5,4) = -0
constr(479):  x(tn5,5) = 1
constr(480):  x(tn5,6) = -0
constr(481):  x(tn5,7) = 1
constr(482):  x(tn5,8) = -0
constr(483):  x(tn5,9) = -0
constr(484):  x(tn5,10) = 1
constr(485):  x(tn6,1) = -0
constr(486):  x(tn6,2) = -0
constr(487):  x(tn6,3) = -0
constr(488):  x(tn6,4) = 2
constr(489):  x(tn6,5) = 1
constr(490):  x(tn6,6) = 1
constr(491):  x(tn6,7) = 1
constr(492):  x(tn6,8) = -0
constr(493):  x(tn6,9) = -0
constr(494):  x(tn6,10) = 1
constr(495):  x(tn7,1) = -0
constr(496):  x(tn7,2) = -0
constr(497):  x(tn7,3) = -0
constr(498):  x(tn7,4) = 1
constr(499):  x(tn7,5) = -0
constr(500):  x(tn7,6) = 1
constr(501):  x(tn7,7) = 1
constr(502):  x(tn7,8) = -0
constr(503):  x(tn7,9) = -0
constr(504):  x(tn7,10) = 1
constr(505):  x(tn8,1) = -0
constr(506):  x(tn8,2) = -0
constr(507):  x(tn8,3) = -0
constr(508):  x(tn8,4) = -0
constr(509):  x(tn8,5) = -0
constr(510):  x(tn8,6) = -0
constr(511):  x(tn8,7) = -0
constr(512):  x(tn8,8) = -0
constr(513):  x(tn8,9) = -0
constr(514):  x(tn8,10) = -0
constr(515):  x(tn9,1) = 2
constr(516):  x(tn9,2) = 4
constr(517):  x(tn9,3) = -0
constr(518):  x(tn9,4) = 3
constr(519):  x(tn9,5) = 54
constr(520):  x(tn9,6) = 16
constr(521):  x(tn9,7) = 1
constr(522):  x(tn9,8) = 5
constr(523):  x(tn9,9) = 5
constr(524):  x(tn9,10) = 1
constr(525):  x(tn10,1) = -0
constr(526):  x(tn10,2) = 9
constr(527):  x(tn10,3) = 71
constr(528):  x(tn10,4) = 57
constr(529):  x(tn10,5) = 72
constr(530):  x(tn10,6) = 16
constr(531):  x(tn10,7) = 30
constr(532):  x(tn10,8) = 153
constr(533):  x(tn10,9) = 40
constr(534):  x(tn10,10) = 7
constr(535):  x(tn11,1) = -0
constr(536):  x(tn11,2) = -0
constr(537):  x(tn11,3) = -0
constr(538):  x(tn11,4) = -0
constr(539):  x(tn11,5) = 7
constr(540):  x(tn11,6) = 5
constr(541):  x(tn11,7) = 6
constr(542):  x(tn11,8) = 11
constr(543):  x(tn11,9) = 4
constr(544):  x(tn11,10) = 5
constr(545):  x(tn12,1) = -0
constr(546):  x(tn12,2) = 7
constr(547):  x(tn12,3) = 2
constr(548):  x(tn12,4) = 3
constr(549):  x(tn12,5) = 14
constr(550):  x(tn12,6) = 7
constr(551):  x(tn12,7) = 5
constr(552):  x(tn12,8) = 7
constr(553):  x(tn12,9) = 12
constr(554):  x(tn12,10) = 5
constr(555):  x(tn13,1) = -0
constr(556):  x(tn13,2) = 63
constr(557):  x(tn13,3) = 136
constr(558):  x(tn13,4) = 108
constr(559):  x(tn13,5) = 146
constr(560):  x(tn13,6) = 91
constr(561):  x(tn13,7) = 114
constr(562):  x(tn13,8) = 106
constr(563):  x(tn13,9) = 65
constr(564):  x(tn13,10) = 29
constr(565):  x(tn14,1) = -0
constr(566):  x(tn14,2) = -0
constr(567):  x(tn14,3) = -0
constr(568):  x(tn14,4) = -0
constr(569):  x(tn14,5) = 6
constr(570):  x(tn14,6) = 13
constr(571):  x(tn14,7) = 6
constr(572):  x(tn14,8) = 4
constr(573):  x(tn14,9) = 2
constr(574):  x(tn14,10) = 1
Bounds
Integers
x(tn1,0) x(tn1,1) x(tn1,2) x(tn1,3) x(tn1,4) x(tn1,5) x(tn1,6) x(tn1,7) x(tn1,8) x(tn1,9) 
x(tn1,10) x(tn2,0) x(tn2,1) x(tn2,2) x(tn2,3) x(tn2,4) x(tn2,5) x(tn2,6) x(tn2,7) x(tn2,8) 
x(tn2,9) x(tn2,10) x(tn3,0) x(tn3,1) x(tn3,2) x(tn3,3) x(tn3,4) x(tn3,5) x(tn3,6) x(tn3,7) 
x(tn3,8) x(tn3,9) x(tn3,10) x(tn4,0) x(tn4,1) x(tn4,2) x(tn4,3) x(tn4,4) x(tn4,5) x(tn4,6) 
x(tn4,7) x(tn4,8) x(tn4,9) x(tn4,10) x(tn5,0) x(tn5,1) x(tn5,2) x(tn5,3) x(tn5,4) x(tn5,5) 
x(tn5,6) x(tn5,7) x(tn5,8) x(tn5,9) x(tn5,10) x(tn6,0) x(tn6,1) x(tn6,2) x(tn6,3) x(tn6,4) 
x(tn6,5) x(tn6,6) x(tn6,7) x(tn6,8) x(tn6,9) x(tn6,10) x(tn7,0) x(tn7,1) x(tn7,2) x(tn7,3) 
x(tn7,4) x(tn7,5) x(tn7,6) x(tn7,7) x(tn7,8) x(tn7,9) x(tn7,10) x(tn8,0) x(tn8,1) x(tn8,2) 
x(tn8,3) x(tn8,4) x(tn8,5) x(tn8,6) x(tn8,7) x(tn8,8) x(tn8,9) x(tn8,10) x(tn9,0) x(tn9,1) 
x(tn9,2) x(tn9,3) x(tn9,4) x(tn9,5) x(tn9,6) x(tn9,7) x(tn9,8) x(tn9,9) x(tn9,10) x(tn10,0) 
x(tn10,1) x(tn10,2) x(tn10,3) x(tn10,4) x(tn10,5) x(tn10,6) x(tn10,7) x(tn10,8) x(tn10,9) x(tn10,10) 
x(tn11,0) x(tn11,1) x(tn11,2) x(tn11,3) x(tn11,4) x(tn11,5) x(tn11,6) x(tn11,7) x(tn11,8) x(tn11,9) 
x(tn11,10) x(tn12,0) x(tn12,1) x(tn12,2) x(tn12,3) x(tn12,4) x(tn12,5) x(tn12,6) x(tn12,7) x(tn12,8) 
x(tn12,9) x(tn12,10) x(tn13,0) x(tn13,1) x(tn13,2) x(tn13,3) x(tn13,4) x(tn13,5) x(tn13,6) x(tn13,7) 
x(tn13,8) x(tn13,9) x(tn13,10) x(tn14,0) x(tn14,1) x(tn14,2) x(tn14,3) x(tn14,4) x(tn14,5) x(tn14,6) 
x(tn14,7) x(tn14,8) x(tn14,9) x(tn14,10) y(tn1,0) y(tn1,1) y(tn1,2) y(tn1,3) y(tn1,4) y(tn1,5) 
y(tn1,6) y(tn1,7) y(tn1,8) y(tn1,9) y(tn1,10) y(tn2,0) y(tn2,1) y(tn2,2) y(tn2,3) y(tn2,4) 
y(tn2,5) y(tn2,6) y(tn2,7) y(tn2,8) y(tn2,9) y(tn2,10) y(tn3,0) y(tn3,1) y(tn3,2) y(tn3,3) 
y(tn3,4) y(tn3,5) y(tn3,6) y(tn3,7) y(tn3,8) y(tn3,9) y(tn3,10) y(tn4,0) y(tn4,1) y(tn4,2) 
y(tn4,3) y(tn4,4) y(tn4,5) y(tn4,6) y(tn4,7) y(tn4,8) y(tn4,9) y(tn4,10) y(tn5,0) y(tn5,1) 
y(tn5,2) y(tn5,3) y(tn5,4) y(tn5,5) y(tn5,6) y(tn5,7) y(tn5,8) y(tn5,9) y(tn5,10) y(tn6,0) 
y(tn6,1) y(tn6,2) y(tn6,3) y(tn6,4) y(tn6,5) y(tn6,6) y(tn6,7) y(tn6,8) y(tn6,9) y(tn6,10) 
y(tn7,0) y(tn7,1) y(tn7,2) y(tn7,3) y(tn7,4) y(tn7,5) y(tn7,6) y(tn7,7) y(tn7,8) y(tn7,9) 
y(tn7,10) y(tn8,0) y(tn8,1) y(tn8,2) y(tn8,3) y(tn8,4) y(tn8,5) y(tn8,6) y(tn8,7) y(tn8,8) 
y(tn8,9) y(tn8,10) y(tn9,0) y(tn9,1) y(tn9,2) y(tn9,3) y(tn9,4) y(tn9,5) y(tn9,6) y(tn9,7) 
y(tn9,8) y(tn9,9) y(tn9,10) y(tn10,0) y(tn10,1) y(tn10,2) y(tn10,3) y(tn10,4) y(tn10,5) y(tn10,6) 
y(tn10,7) y(tn10,8) y(tn10,9) y(tn10,10) y(tn11,0) y(tn11,1) y(tn11,2) y(tn11,3) y(tn11,4) y(tn11,5) 
y(tn11,6) y(tn11,7) y(tn11,8) y(tn11,9) y(tn11,10) y(tn12,0) y(tn12,1) y(tn12,2) y(tn12,3) y(tn12,4) 
y(tn12,5) y(tn12,6) y(tn12,7) y(tn12,8) y(tn12,9) y(tn12,10) y(tn13,0) y(tn13,1) y(tn13,2) y(tn13,3) 
y(tn13,4) y(tn13,5) y(tn13,6) y(tn13,7) y(tn13,8) y(tn13,9) y(tn13,10) y(tn14,0) y(tn14,1) y(tn14,2) 
y(tn14,3) y(tn14,4) y(tn14,5) y(tn14,6) y(tn14,7) y(tn14,8) y(tn14,9) y(tn14,10) 
End
